Set parameter TSPort to value 51199
Set parameter TokenServer to value "open-license1.lanl.gov"
Set parameter TimeLimit to value 128
Set parameter Threads to value 1
Gurobi Optimizer version 10.0.3 build v10.0.3rc0 (linux64)

CPU model: Intel(R) Xeon(R) CPU E5-2695 v4 @ 2.10GHz, instruction set [SSE2|AVX|AVX2]
Thread count: 36 physical cores, 72 logical processors, using up to 1 threads

Optimize a model with 0 rows, 598 columns and 0 nonzeros
Model fingerprint: 0x4cad9756
Model has 2577 quadratic objective terms
Variable types: 0 continuous, 598 integer (598 binary)
Coefficient statistics:
  Matrix range     [0e+00, 0e+00]
  Objective range  [2e+00, 3e+01]
  QObjective range [8e+00, 8e+00]
  Bounds range     [1e+00, 1e+00]
  RHS range        [0e+00, 0e+00]
Found heuristic solution: objective 0.0000000
Found heuristic solution: objective -1006.000000
Found heuristic solution: objective -3518.000000
Found heuristic solution: objective -3528.000000
Presolve time: 0.22s
Presolved: 2577 rows, 3175 columns, 7731 nonzeros
Variable types: 0 continuous, 3175 integer (3175 binary)

Root relaxation: objective -4.815000e+03, 723 iterations, 0.01 seconds (0.01 work units)

    Nodes    |    Current Node    |     Objective Bounds      |     Work
 Expl Unexpl |  Obj  Depth IntInf | Incumbent    BestBd   Gap | It/Node Time

     0     0 -4815.0000    0  598 -3528.0000 -4815.0000  36.5%     -    0s
     0     0 -4384.5000    0  833 -3528.0000 -4384.5000  24.3%     -    0s
     0     0 -4381.5000    0  833 -3528.0000 -4381.5000  24.2%     -    0s
     0     0 -4292.3333    0  918 -3528.0000 -4292.3333  21.7%     -    0s
     0     0 -4292.3333    0  899 -3528.0000 -4292.3333  21.7%     -    0s
     0     2 -4292.0000    0  888 -3528.0000 -4292.0000  21.7%     -    1s
   513   498 -3711.1667   90  598 -3528.0000 -4280.5000  21.3%  79.9    5s
   530   510 -3946.0330   35 1723 -3528.0000 -3946.0330  11.8%  77.3   10s
   541   517 -3883.0753   51 2046 -3528.0000 -3883.0753  10.1%  75.8   15s
   549   522 -3846.6504   45 2244 -3528.0000 -3846.6504  9.03%  74.7   20s
   557   528 -3667.6667   95 2583 -3528.0000 -3816.8463  8.19%  73.6   27s
   560   530 -3768.1667   76 2629 -3528.0000 -3811.9134  8.05%  73.2   30s
   567   534 -3649.8333   99 2682 -3528.0000 -3796.7182  7.62%  72.3   36s
   573   538 -3617.0000  115 2685 -3528.0000 -3787.3724  7.35%  71.5   41s
   581   544 -3781.0960   31 2709 -3528.0000 -3781.0960  7.17%  70.5   45s
   589   549 -3632.6667  109 2755 -3528.0000 -3776.0557  7.03%  69.6   50s
   601   557 -3656.8333   97 2755 -3528.0000 -3769.8483  6.86%  68.2   55s
   612   564 -3766.1377   18 2822 -3528.0000 -3766.1377  6.75%  67.0   60s
   621   570 -3761.6467    5 2823 -3528.0000 -3761.6467  6.62%  66.0   65s
   639   582 -3540.5000  141 2835 -3528.0000 -3757.5547  6.51%  64.1   70s
   655   593 -3716.5000   88 2857 -3528.0000 -3753.7245  6.40%  62.6   75s
   672   604 -3750.6373   13 2852 -3528.0000 -3750.6373  6.31%  61.0   80s
   695   620 -3748.2341   23 2878 -3528.0000 -3748.2341  6.24%  59.0   85s
   715   635 -3746.6988   79 2570 -3528.0000 -3746.6988  6.20%   313   96s
   716   635 -3726.1667   86 2741 -3528.0000 -3746.6988  6.20%   313  102s
   717   636 -3663.6667  103 2804 -3528.0000 -3746.6988  6.20%   313  105s
   730   645 -3743.9798   35 2849 -3528.0000 -3743.9798  6.12%   307  110s
   741   652 -3741.0834   51 2843 -3528.0000 -3741.0834  6.04%   302  115s
   753   660 -3738.2824   48 2860 -3528.0000 -3738.2824  5.96%   298  120s
   766   669 -3735.3054    7 2880 -3528.0000 -3735.3054  5.88%   293  125s

Cutting planes:
  Gomory: 29
  MIR: 105
  Flow cover: 1037
  Zero half: 395
  Mod-K: 1
  RLT: 110
  BQP: 166

Explored 775 nodes (311273 simplex iterations) in 128.01 seconds (140.03 work units)
Thread count was 1 (of 72 available processors)

Solution count 4: -3528 -3518 -1006 0 

Time limit reached
Best objective -3.528000000000e+03, best bound -3.734000000000e+03, gap 5.8390%

User-callback calls 7810, time in user-callback 0.03 sec

BQP_SOLUTION, 598, 2577, -1290.000000, 128.006697, 1, 1, -1, 1, -1, 1, 1, -1, 1, 1, -1, 1, 1, 1, -1, 1, 1, -1, 1, 1, 1, 1, 1, -1, 1, -1, 1, 1, -1, 1, -1, 1, 1, -1, -1, 1, 1, 1, -1, 1, -1, 1, 1, -1, 1, -1, 1, 1, -1, 1, -1, 1, 1, -1, 1, -1, 1, 1, 1, -1, -1, 1, 1, 1, -1, 1, 1, 1, -1, 1, -1, 1, -1, 1, -1, 1, 1, 1, 1, -1, -1, -1, 1, 1, -1, -1, 1, 1, 1, -1, 1, -1, -1, 1, -1, 1, -1, 1, 1, -1, 1, -1, -1, 1, 1, 1, -1, -1, 1, -1, 1, -1, -1, 1, -1, 1, -1, -1, 1, -1, 1, -1, -1, 1, -1, -1, -1, -1, 1, 1, -1, -1, -1, -1, 1, 1, 1, 1, -1, 1, 1, -1, -1, -1, 1, 1, 1, 1, -1, 1, 1, -1, -1, -1, 1, -1, -1, 1, -1, 1, -1, -1, 1, 1, -1, -1, 1, 1, 1, 1, -1, 1, -1, 1, 1, 1, 1, 1, 1, 1, -1, 1, -1, 1, 1, 1, -1, -1, 1, -1, 1, 1, -1, 1, -1, -1, 1, -1, 1, -1, 1, 1, -1, 1, -1, 1, 1, -1, 1, -1, 1, 1, -1, 1, -1, 1, 1, -1, 1, 1, -1, 1, 1, -1, 1, -1, 1, 1, 1, 1, 1, 1, 1, -1, -1, -1, 1, 1, 1, -1, 1, 1, -1, 1, 1, 1, 1, -1, 1, 1, 1, -1, 1, 1, 1, 1, 1, -1, 1, 1, -1, 1, -1, 1, -1, -1, 1, -1, 1, -1, 1, -1, 1, 1, -1, -1, 1, -1, -1, 1, -1, 1, 1, 1, -1, 1, -1, 1, 1, -1, -1, 1, -1, 1, 1, -1, 1, 1, 1, 1, -1, 1, 1, 1, 1, -1, 1, -1, 1, 1, -1, 1, 1, 1, 1, -1, 1, -1, 1, 1, -1, -1, 1, 1, -1, -1, 1, 1, -1, -1, -1, 1, 1, -1, 1, -1, 1, -1, 1, -1, 1, 1, 1, -1, -1, 1, 1, 1, -1, -1, 1, -1, -1, -1, 1, 1, -1, 1, 1, 1, 1, 1, 1, -1, 1, 1, -1, 1, -1, 1, -1, 1, 1, -1, 1, 1, -1, 1, -1, 1, 1, -1, 1, -1, 1, 1, -1, 1, -1, 1, -1, -1, 1, -1, 1, 1, -1, 1, -1, -1, 1, -1, 1, -1, 1, 1, -1, 1, -1, -1, 1, -1, -1, 1, -1, 1, 1, -1, -1, 1, -1, -1, -1, -1, 1, -1, -1, 1, -1, 1, -1, -1, -1, -1, 1, -1, -1, 1, -1, 1, 1, -1, 1, -1, 1, -1, -1, -1, 1, -1, 1, -1, 1, -1, 1, -1, -1, -1, -1, -1, 1, -1, -1, 1, -1, 1, -1, 1, 1, -1, 1, -1, -1, 1, 1, 1, 1, 1, 1, -1, 1, 1, -1, -1, 1, -1, -1, 1, 1, 1, 1, 1, 1, -1, -1, 1, -1, 1, 1, -1, 1, 1, 1, 1, -1, 1, 1, -1, 1, -1, 1, 1, -1, 1, -1, 1, 1, -1, -1, -1, -1, 1, 1, 1, -1, 1, 1, -1, -1, 1, -1, 1, 1, -1, -1, 1, -1, -1, -1, 1, -1, -1, -1, 1, 1, 1, 1, 1, 1, -1, -1, -1, 1, 1, 1, -1, -1, -1, -1, 1, -1, -1, -1, -1, 1, -1, 1, -1, -1, 1, -1, -1, -1, 1, 1, -1, 1, 1, -1, -1, -1, 1, -1, 1, 1, -1, -1, 1, 1, 1, -1, -1, 1, 1, -1, 1, -1, -1
BQP_DATA, 598, 2577, -1290.000000, -1496.000000, -3528.000000, -3734.000000, 128.006697, 1567, 775
